ciphers.enigma_machine2/14_unsat.smt2
(set-logic ALL)
(declare-const pbstring_VAR String)
(assert (not (not (= (mod (str.len pbstring_VAR) 2) 0))))
(assert (not (= pbstring_VAR "")))
(assert (not (< (str.len pbstring_VAR) 0)))
(assert (str.contains pbstring_VAR " "))
(assert (< (str.len pbstring_VAR) 0))
(check-sat)
(get-value (pbstring_VAR))
